db/data/27533970820793640031858143952686020015.z3.out
-------------------
2500.193243931
